(set-logic ALL)
(declare-const k Int)
(declare-fun s () (_ BitVec k))
(declare-fun t () (_ BitVec k))
(assert (distinct (bvlshr (_ bv1 k) (bvsub (_ bv1 k) (bvshl s s))) (bvlshr (bvmul s s) s)))
(check-sat)
